p tw 107 122
1 2
2 20
3 11
4 5
4 7
5 6
6 7
7 8
8 9
9 10
11 12
12 13
13 14
14 15
15 16
16 17
17 18
18 19
19 21
20 31
21 22
21 24
22 23
23 13
24 25
25 26
26 27
27 28
27 30
28 29
29 35
30 32
31 42
31 86
32 33
33 34
33 35
34 35
35 36
36 37
36 56
37 38
38 39
39 40
40 41
40 56
41 43
42 53
43 44
44 45
45 46
46 47
47 48
48 49
48 52
49 50
50 51
51 56
52 54
53 64
53 86
54 55
55 56
56 57
57 58
57 59
58 59
59 60
60 61
61 62
62 63
63 65
64 75
65 66
66 67
67 68
67 107
68 69
69 70
70 71
71 72
72 73
72 107
73 74
74 76
75 86
75 3
76 77
77 78
78 79
79 80
79 83
80 81
81 82
82 83
83 84
84 85
85 87
85 89
86 97
87 88
88 91
89 90
90 91
91 92
92 93
93 94
94 95
95 96
96 98
96 107
97 3
98 99
99 100
100 101
101 102
102 103
103 104
104 105
105 106
106 62
107 4
